(set-logic ALL)
(declare-fun var0 () String)
(assert (str.in_re var0 (re.++ (re.* (re.union (re.+ (re.union (re.* (re.+ (re.* (re.+ (re.union (re.+ (re.+ (re.union (re.+ (re.* (str.to_re "00"))) (re.+ (re.+ (str.to_re "111")))))) (re.+ (re.union (re.union (re.+ (re.union (str.to_re "222") (str.to_re "333"))) (re.+ (re.union (str.to_re "44") (str.to_re "5")))) (re.union (re.+ (re.* (str.to_re "6"))) (re.+ (re.* (str.to_re "777"))))))))))) (re.* (re.union (re.union (re.* (re.* (re.* (re.+ (re.union (re.+ (re.+ (str.to_re "8"))) (re.+ (re.+ (str.to_re "9")))))))) (re.* (re.+ (re.* (re.union (re.+ (re.+ (re.union (str.to_re "aa") (str.to_re "b")))) (re.+ (re.+ (re.+ (str.to_re "c"))))))))) (re.union (re.union (re.+ (re.+ (re.* (re.+ (re.union (re.+ (str.to_re "d")) (re.+ (str.to_re "ee"))))))) (re.+ (re.+ (re.union (re.* (re.union (re.+ (str.to_re "fff")) (re.+ (str.to_re "ggg")))) (re.* (re.+ (re.union (str.to_re "hh") (str.to_re "ii")))))))) (re.union (re.* (re.+ (re.* (re.+ (re.union (re.union (str.to_re "jjj") (str.to_re "kkk")) (re.union (str.to_re "ll") (str.to_re "mm"))))))) (re.* (re.* (re.+ (re.+ (re.union (re.* (str.to_re "nnn")) (re.* (str.to_re "ooo"))))))))))))) (re.+ (re.* (re.* (re.+ (re.union (re.+ (re.union (re.union (re.+ (re.union (re.+ (re.+ (str.to_re "ppp"))) (re.+ (re.union (str.to_re "qq") (str.to_re "r"))))) (re.+ (re.union (re.* (re.* (str.to_re "s"))) (re.* (re.* (str.to_re "t")))))) (re.union (re.union (re.union (re.union (re.union (str.to_re "uu") (str.to_re "v")) (re.union (str.to_re "ww") (str.to_re "x"))) (re.union (re.union (str.to_re "yy") (str.to_re "zz")) (re.union (str.to_re "A") (str.to_re "BB")))) (re.union (re.+ (re.* (str.to_re "CC"))) (re.+ (re.union (str.to_re "DDD") (str.to_re "EE"))))) (re.union (re.* (re.* (re.union (str.to_re "FFF") (str.to_re "GGG")))) (re.* (re.* (re.+ (str.to_re "HHH")))))))) (re.+ (re.* (re.+ (re.union (re.+ (re.+ (re.* (str.to_re "II")))) (re.+ (re.+ (re.+ (str.to_re "JJJ"))))))))))))))) (re.union (re.+ (re.* (re.* (re.+ (re.+ (re.union (re.union (re.+ (re.union (re.* (re.* (re.union (re.+ (str.to_re "K")) (re.+ (str.to_re "L"))))) (re.* (re.* (re.+ (re.* (str.to_re "M"))))))) (re.+ (re.union (re.+ (re.union (re.* (re.* (str.to_re "NNN"))) (re.* (re.* (str.to_re "OOO"))))) (re.+ (re.* (re.* (re.* (str.to_re "P")))))))) (re.union (re.+ (re.union (re.* (re.* (re.+ (re.union (str.to_re "QQ") (str.to_re "RRR"))))) (re.* (re.* (re.union (re.union (str.to_re "SS") (str.to_re "TTT")) (re.union (str.to_re "UU") (str.to_re "V"))))))) (re.+ (re.union (re.* (re.* (re.+ (re.* (str.to_re "W"))))) (re.* (re.* (re.union (re.* (str.to_re "XXX")) (re.* (str.to_re "Y")))))))))))))) (re.+ (re.* (re.union (re.* (re.union (re.union (re.* (re.* (re.* (re.+ (re.+ (re.* (re.* (str.to_re "ZZ")))))))) (re.* (re.* (re.union (re.union (re.union (re.* (re.+ (str.to_re "!!"))) (re.* (re.* (str.to_re """")))) (re.union (re.* (re.union (str.to_re "##") (str.to_re "$"))) (re.* (re.+ (str.to_re "%"))))) (re.union (re.* (re.* (re.* (str.to_re "&&")))) (re.* (re.+ (re.* (str.to_re "'''"))))))))) (re.union (re.+ (re.* (re.* (re.union (re.+ (re.+ (re.+ (str.to_re "((")))) (re.+ (re.+ (re.union (str.to_re "))") (str.to_re "*")))))))) (re.+ (re.* (re.union (re.* (re.* (re.+ (re.+ (str.to_re "+"))))) (re.* (re.union (re.* (re.union (str.to_re ",") (str.to_re "---"))) (re.* (re.* (str.to_re ".."))))))))))) (re.* (re.* (re.* (re.+ (re.+ (re.* (re.union (re.* (re.union (re.+ (str.to_re "///")) (re.+ (str.to_re ":::")))) (re.* (re.+ (re.union (str.to_re ";;;") (str.to_re "<<<"))))))))))))))))))
(assert (<= 15 (str.len var0)))
(check-sat)